
  17    0


   0   9 2 3 4 5 6 7 14 15 16 
  10   3 13 12 8 
   8   2 11 8 
   5   2 9 8 
   9   1 10 
   8   1 9 
   7   1 8 
   5   1 17
  10   1 17
   1   1 17
   1   1 17
   8   1 17
   5   1 17
   1   1 17
   9   1 17
   2   1 17
   0   0 
